 vasp.5.3.2 13Sep12 (build Nov 15 2012 16:01:14) complex

 INCAR:
 POTCAR:   PAW_PBE Si 05Jan2001
 POTCAR:   PAW_PBE Si 05Jan2001
   VRHFIN =Si: s2p2

   TITEL  = PAW_PBE Si 05Jan2001
   POMASS =   28.085; ZVAL   =    4.000    mass and valenz
   ENMAX  =  245.345; ENMIN  =  184.009 eV
   QCUT   =   -4.246; QGAM   =    8.493    optimization parameters

   Description
     l     E      TYP  RCUT    TYP  RCUT
     0   .000     23  1.900
     0   .000     23  1.900
     1   .000     23  1.900
     1   .000     23  1.900
     2   .000      7  1.900

 PAW_PBE Si 05Jan2001                   :

 POSCAR: Si diamant
  positions in direct lattice
  velocities in cartesian coordinates
 exchange correlation table for  LEXCH =        8
   RHO(1)=    0.500       N(1)  =     2000
   RHO(2)=  100.500       N(2)  =     4000

 ion  position               nearest neighbor table
   1  0.125  0.125  0.125-   2 2.37   2 2.37   2 2.37   2 2.37
   2  0.875  0.875  0.875-   1 2.37   1 2.37   1 2.37   1 2.37

  LATTYP: Found a face centered cubic cell.
 ALAT       =     5.4683394883

  Lattice vectors:

 A1 = (   3.8666999340,   0.0000000000,   0.0000000000)
 A2 = (   1.9333499670,   3.3486603717,   0.0000000000)
 A3 = (   1.9333499670,   1.1162201239,   3.1571472756)

Analysis of symmetry for initial positions (statically):
 Subroutine PRICEL returns:
 Original cell was already a primitive cell.

 Routine SETGRP: Setting up the symmetry group for a
 face centered cubic supercell.

 Subroutine GETGRP returns: Found 48 space group operations
 (whereof 12 operations were pure point group operations)
 out of a pool of 48 trial point group operations.

The static configuration has the point symmetry D_3d.
 The point group associated with its full space group is O_h .

Analysis of symmetry for dynamics (positions and initial velocities):
 Subroutine PRICEL returns:
 Original cell was already a primitive cell.

 Routine SETGRP: Setting up the symmetry group for a
 face centered cubic supercell.

 Subroutine GETGRP returns: Found 48 space group operations
 (whereof 12 operations were pure point group operations)
 out of a pool of 48 trial point group operations.

The dynamic configuration has the point symmetry D_3d.
 The point group associated with its full space group is O_h .

 KPOINTS: pointsk

Automatic generation of k-mesh.
Space group operators:
 irot       det(A)        alpha          n_x          n_y          n_z        tau_x        tau_y        tau_z
    1     1.000000     0.000000     1.000000     0.000000     0.000000     0.000000     0.000000     0.000000
    2    -1.000000     0.000000     1.000000     0.000000     0.000000     0.000000     0.000000     0.000000
    3     1.000000   120.000000    -0.816497    -0.471405    -0.333333     0.000000     0.000000     0.000000
    4    -1.000000   120.000000    -0.816497    -0.471405    -0.333333     0.000000     0.000000     0.000000
    5     1.000000   120.000000     0.816497     0.471405     0.333333     0.000000     0.000000     0.000000
    6    -1.000000   120.000000     0.816497     0.471405     0.333333     0.000000     0.000000     0.000000
    7     1.000000   180.000000     0.000000    -0.577350     0.816497     0.000000     0.000000     0.000000
    8    -1.000000   180.000000     0.000000    -0.577350     0.816497     0.000000     0.000000     0.000000
    9     1.000000   180.000000    -0.500000     0.866025     0.000000     0.000000     0.000000     0.000000
   10    -1.000000   180.000000    -0.500000     0.866025     0.000000     0.000000     0.000000     0.000000
   11     1.000000   179.999999    -0.500000     0.288675     0.816497     0.000000     0.000000     0.000000
   12    -1.000000   179.999999    -0.500000     0.288675     0.816497     0.000000     0.000000     0.000000
   13     1.000000    90.000000    -0.707107    -0.408248     0.577350     0.500000     0.000000     0.000000
   14    -1.000000    90.000000    -0.707107    -0.408248     0.577350     0.500000     0.000000     0.000000
   15     1.000000   180.000000     1.000000     0.000000     0.000000     0.500000     0.000000     0.000000
   16    -1.000000   180.000000     1.000000     0.000000     0.000000     0.500000     0.000000     0.000000
   17     1.000000    90.000000     0.707107    -0.408248     0.577350     0.500000     0.000000     0.000000
   18    -1.000000    90.000000     0.707107    -0.408248     0.577350     0.500000     0.000000     0.000000
   19     1.000000   180.000000     0.707107     0.408248    -0.577350     0.000000     0.000000     0.500000
   20    -1.000000   180.000000     0.707107     0.408248    -0.577350     0.000000     0.000000     0.500000
   21     1.000000   120.000000     0.816497    -0.471405    -0.333333     0.000000     0.000000     0.500000
   22    -1.000000   120.000000     0.816497    -0.471405    -0.333333     0.000000     0.000000     0.500000
   23     1.000000   120.000000     0.000000    -0.942809     0.333333     0.000000     0.000000     0.500000
   24    -1.000000   120.000000     0.000000    -0.942809     0.333333     0.000000     0.000000     0.500000
   25     1.000000    90.000000     0.707107     0.408248    -0.577350     0.000000     0.500000     0.000000
   26    -1.000000    90.000000     0.707107     0.408248    -0.577350     0.000000     0.500000     0.000000
   27     1.000000    90.000000     0.000000    -0.816497    -0.577350     0.000000     0.500000     0.000000
   28    -1.000000    90.000000     0.000000    -0.816497    -0.577350     0.000000     0.500000     0.000000
   29     1.000000   180.000000     0.500000     0.866025     0.000000     0.000000     0.500000     0.000000
   30    -1.000000   180.000000     0.500000     0.866025     0.000000     0.000000     0.500000     0.000000
   31     1.000000   120.000000     0.000000     0.942809    -0.333333     0.500000     0.000000     0.000000
   32    -1.000000   120.000000     0.000000     0.942809    -0.333333     0.500000     0.000000     0.000000
   33     1.000000   120.000000     0.000000     0.000000    -1.000000     0.500000     0.000000     0.000000
   34    -1.000000   120.000000     0.000000     0.000000    -1.000000     0.500000     0.000000     0.000000
   35     1.000000   180.000000     0.000000    -0.816497    -0.577350     0.500000     0.000000     0.000000
   36    -1.000000   180.000000     0.000000    -0.816497    -0.577350     0.500000     0.000000     0.000000
   37     1.000000    90.000000    -0.707107     0.408248    -0.577350     0.000000     0.000000     0.500000
   38    -1.000000    90.000000    -0.707107     0.408248    -0.577350     0.000000     0.000000     0.500000
   39     1.000000   179.999999     0.500000     0.288675     0.816497     0.000000     0.000000     0.500000
   40    -1.000000   179.999999     0.500000     0.288675     0.816497     0.000000     0.000000     0.500000
   41     1.000000    90.000000     0.000000     0.816497     0.577350     0.000000     0.000000     0.500000
   42    -1.000000    90.000000     0.000000     0.816497     0.577350     0.000000     0.000000     0.500000
   43     1.000000   120.000000    -0.816497     0.471405     0.333333     0.000000     0.500000     0.000000
   44    -1.000000   120.000000    -0.816497     0.471405     0.333333     0.000000     0.500000     0.000000
   45     1.000000   180.000000    -0.707107     0.408248    -0.577350     0.000000     0.500000     0.000000
   46    -1.000000   180.000000    -0.707107     0.408248    -0.577350     0.000000     0.500000     0.000000
   47     1.000000   120.000000     0.000000     0.000000     1.000000     0.000000     0.500000     0.000000
   48    -1.000000   120.000000     0.000000     0.000000     1.000000     0.000000     0.500000     0.000000

 Subroutine IBZKPT returns following result:

 Found    816 irreducible k-points:

 Following reciprocal coordinates:
            Coordinates               Weight
  0.000000  0.000000  0.000000      1.000000
  0.032258  0.000000  0.000000      8.000000
  0.064516  0.000000  0.000000      8.000000
  0.096774  0.000000  0.000000      8.000000
  0.129032  0.000000  0.000000      8.000000
  0.161290  0.000000  0.000000      8.000000
  0.193548  0.000000  0.000000      8.000000
  0.225806  0.000000  0.000000      8.000000
  0.258065  0.000000  0.000000      8.000000
  0.290323  0.000000  0.000000      8.000000
  0.322581  0.000000  0.000000      8.000000
  0.354839  0.000000  0.000000      8.000000
  0.387097  0.000000  0.000000      8.000000
  0.419355  0.000000  0.000000      8.000000
  0.451613  0.000000  0.000000      8.000000
  0.483871  0.000000  0.000000      8.000000
  0.032258  0.032258  0.000000      6.000000
  0.064516  0.032258  0.000000     24.000000
  0.096774  0.032258  0.000000     24.000000
  0.129032  0.032258  0.000000     24.000000
  0.161290  0.032258  0.000000     24.000000
  0.193548  0.032258  0.000000     24.000000
  0.225806  0.032258  0.000000     24.000000
  0.258065  0.032258  0.000000     24.000000
  0.290323  0.032258  0.000000     24.000000
  0.322581  0.032258  0.000000     24.000000
  0.354839  0.032258  0.000000     24.000000
  0.387097  0.032258  0.000000     24.000000
  0.419355  0.032258  0.000000     24.000000
  0.451613  0.032258  0.000000     24.000000
  0.483871  0.032258  0.000000     24.000000
 -0.483871  0.032258  0.000000     24.000000
 -0.451613  0.032258  0.000000     24.000000
 -0.419355  0.032258  0.000000     24.000000
 -0.387097  0.032258  0.000000     24.000000
 -0.354839  0.032258  0.000000     24.000000
 -0.322581  0.032258  0.000000     24.000000
 -0.290323  0.032258  0.000000     24.000000
 -0.258065  0.032258  0.000000     24.000000
 -0.225806  0.032258  0.000000     24.000000
 -0.193548  0.032258  0.000000     24.000000
 -0.161290  0.032258  0.000000     24.000000
 -0.129032  0.032258  0.000000     24.000000
 -0.096774  0.032258  0.000000     24.000000
 -0.064516  0.032258  0.000000     24.000000
 -0.032258  0.032258  0.000000     12.000000
  0.064516  0.064516  0.000000      6.000000
  0.096774  0.064516  0.000000     24.000000
  0.129032  0.064516  0.000000     24.000000
  0.161290  0.064516  0.000000     24.000000
  0.193548  0.064516  0.000000     24.000000
  0.225806  0.064516  0.000000     24.000000
  0.258065  0.064516  0.000000     24.000000
  0.290323  0.064516  0.000000     24.000000
  0.322581  0.064516  0.000000     24.000000
  0.354839  0.064516  0.000000     24.000000
  0.387097  0.064516  0.000000     24.000000
  0.419355  0.064516  0.000000     24.000000
  0.451613  0.064516  0.000000     24.000000
  0.483871  0.064516  0.000000     24.000000
[...]
 -0.354839  0.419355  0.193548     48.000000
 -0.322581  0.419355  0.193548     48.000000
 -0.290323  0.419355  0.193548     48.000000
 -0.258065  0.419355  0.193548     48.000000
 -0.225806  0.419355  0.193548     24.000000
 -0.354839  0.451613  0.193548     24.000000
 -0.322581  0.451613  0.193548     48.000000
 -0.290323  0.451613  0.193548     48.000000
 -0.258065  0.451613  0.193548     24.000000
 -0.322581  0.483871  0.193548     24.000000
 -0.290323  0.483871  0.193548     24.000000
 -0.322581  0.451613  0.225806     24.000000
[...]
 k-point 30 :   0.4516 0.0323 0.0000  plane waves:     752
 k-point 31 :   0.4839 0.0323 0.0000  plane waves:     746
 k-point 32 :  -0.4839 0.0323 0.0000  plane waves:     750
 k-point 33 :  -0.4516 0.0323 0.0000  plane waves:     751
 k-point 34 :  -0.4194 0.0323 0.0000  plane waves:     751
 k-point 35 :  -0.3871 0.0323 0.0000  plane waves:     752
 k-point 36 :  -0.3548 0.0323 0.0000  plane waves:     754
 k-point 37 :  -0.3226 0.0323 0.0000  plane waves:     751
 k-point 38 :  -0.2903 0.0323 0.0000  plane waves:     755
 k-point 39 :  -0.2581 0.0323 0.0000  plane waves:     754
 k-point 40 :  -0.2258 0.0323 0.0000  plane waves:     747
 k-point 41 :  -0.1935 0.0323 0.0000  plane waves:     745
 k-point 42 :  -0.1613 0.0323 0.0000  plane waves:     744
 k-point 43 :  -0.1290 0.0323 0.0000  plane waves:     737
 k-point 44 :  -0.0968 0.0323 0.0000  plane waves:     735
 k-point 45 :  -0.0645 0.0323 0.0000  plane waves:     735
 k-point 46 :  -0.0323 0.0323 0.0000  plane waves:     737
 k-point 47 :   0.0645 0.0645 0.0000  plane waves:     733
 k-point 48 :   0.0968 0.0645 0.0000  plane waves:     735
 k-point 49 :   0.1290 0.0645 0.0000  plane waves:     736
 k-point 50 :   0.1613 0.0645 0.0000  plane waves:     745
 k-point 51 :   0.1935 0.0645 0.0000  plane waves:     743
 k-point 52 :   0.2258 0.0645 0.0000  plane waves:     743
 k-point 53 :   0.2581 0.0645 0.0000  plane waves:     748
 k-point 54 :   0.2903 0.0645 0.0000  plane waves:     753
 k-point 55 :   0.3226 0.0645 0.0000  plane waves:     754
 k-point 56 :   0.3548 0.0645 0.0000  plane waves:     752
 k-point 57 :   0.3871 0.0645 0.0000  plane waves:     753
 k-point 58 :   0.4194 0.0645 0.0000  plane waves:     752
 k-point 59 :   0.4516 0.0645 0.0000  plane waves:     750
 k-point 60 :   0.4839 0.0645 0.0000  plane waves:     747
[...]
 k-point 85 :   0.4194 0.0968 0.0000  plane waves:     748
 k-point 86 :   0.4516 0.0968 0.0000  plane waves:     750
 k-point 87 :   0.4839 0.0968 0.0000  plane waves:     747
 k-point 88 :  -0.4839 0.0968 0.0000  plane waves:     745
 k-point 89 :  -0.4516 0.0968 0.0000  plane waves:     749
 k-point 90 :  -0.4194 0.0968 0.0000  plane waves:     745
 k-point 91 :  -0.3871 0.0968 0.0000  plane waves:     747
 k-point 92 :  -0.3548 0.0968 0.0000  plane waves:     743
 k-point 93 :  -0.3226 0.0968 0.0000  plane waves:     746
 k-point 94 :  -0.2903 0.0968 0.0000  plane waves:     746
 k-point 95 :  -0.2581 0.0968 0.0000  plane waves:     746
 k-point 96 :  -0.2258 0.0968 0.0000  plane waves:     745
 k-point 97 :  -0.1935 0.0968 0.0000  plane waves:     745
 k-point 98 :  -0.1613 0.0968 0.0000  plane waves:     751
 k-point 99 :  -0.1290 0.0968 0.0000  plane waves:     750
 k-point ** :  -0.0968 0.0968 0.0000  plane waves:     747
 k-point ** :   0.1290 0.1290 0.0000  plane waves:     745
 k-point ** :   0.1613 0.1290 0.0000  plane waves:     743
 k-point ** :   0.1935 0.1290 0.0000  plane waves:     746
 k-point ** :   0.2258 0.1290 0.0000  plane waves:     745
 k-point ** :   0.2581 0.1290 0.0000  plane waves:     743
 k-point ** :   0.2903 0.1290 0.0000  plane waves:     748
 k-point ** :   0.3226 0.1290 0.0000  plane waves:     746
 k-point ** :   0.3548 0.1290 0.0000  plane waves:     742
 k-point ** :   0.3871 0.1290 0.0000  plane waves:     742
 k-point ** :   0.4194 0.1290 0.0000  plane waves:     743
 k-point ** :   0.4516 0.1290 0.0000  plane waves:     743
 k-point ** :   0.4839 0.1290 0.0000  plane waves:     746
 k-point ** :  -0.4839 0.1290 0.0000  plane waves:     746
 k-point ** :  -0.4516 0.1290 0.0000  plane waves:     749
 k-point ** :  -0.4194 0.1290 0.0000  plane waves:     747
 k-point ** :  -0.3871 0.1290 0.0000  plane waves:     747
 k-point ** :  -0.3548 0.1290 0.0000  plane waves:     748
 k-point ** :  -0.3226 0.1290 0.0000  plane waves:     745
 k-point ** :  -0.2903 0.1290 0.0000  plane waves:     746
 k-point ** :  -0.2581 0.1290 0.0000  plane waves:     746
 k-point ** :  -0.2258 0.1290 0.0000  plane waves:     747
 k-point ** :  -0.1935 0.1290 0.0000  plane waves:     744
 k-point ** :  -0.1613 0.1290 0.0000  plane waves:     751
 k-point ** :  -0.1290 0.1290 0.0000  plane waves:     753
 k-point ** :   0.1613 0.1613 0.0000  plane waves:     737
 k-point ** :   0.1935 0.1613 0.0000  plane waves:     743
 k-point ** :   0.2258 0.1613 0.0000  plane waves:     740
 k-point ** :   0.2581 0.1613 0.0000  plane waves:     742
 k-point ** :   0.2903 0.1613 0.0000  plane waves:     744
 k-point ** :   0.3226 0.1613 0.0000  plane waves:     744
 k-point ** :   0.3548 0.1613 0.0000  plane waves:     748
 k-point ** :   0.3871 0.1613 0.0000  plane waves:     744
 k-point ** :   0.4194 0.1613 0.0000  plane waves:     744
 k-point ** :   0.4516 0.1613 0.0000  plane waves:     743
 k-point ** :   0.4839 0.1613 0.0000  plane waves:     742
 k-point ** :  -0.4839 0.1613 0.0000  plane waves:     746
 k-point ** :  -0.4516 0.1613 0.0000  plane waves:     743
 k-point ** :  -0.4194 0.1613 0.0000  plane waves:     745
 k-point ** :  -0.3871 0.1613 0.0000  plane waves:     743
 k-point ** :  -0.3548 0.1613 0.0000  plane waves:     742
 k-point ** :  -0.3226 0.1613 0.0000  plane waves:     745
 k-point ** :  -0.2903 0.1613 0.0000  plane waves:     745
 k-point ** :  -0.2581 0.1613 0.0000  plane waves:     746
 k-point ** :  -0.2258 0.1613 0.0000  plane waves:     743
 k-point ** :  -0.1935 0.1613 0.0000  plane waves:     747
 k-point ** :  -0.1613 0.1613 0.0000  plane waves:     748
 k-point ** :   0.1935 0.1935 0.0000  plane waves:     745
 k-point ** :   0.2258 0.1935 0.0000  plane waves:     740
 k-point ** :   0.2581 0.1935 0.0000  plane waves:     740
 k-point ** :   0.2903 0.1935 0.0000  plane waves:     742
 k-point ** :   0.3226 0.1935 0.0000  plane waves:     741
 k-point ** :   0.3548 0.1935 0.0000  plane waves:     745
 k-point ** :   0.3871 0.1935 0.0000  plane waves:     750
 k-point ** :   0.4194 0.1935 0.0000  plane waves:     748
 k-point ** :   0.4516 0.1935 0.0000  plane waves:     743
 k-point ** :   0.4839 0.1935 0.0000  plane waves:     742
 k-point ** :  -0.4839 0.1935 0.0000  plane waves:     742
 k-point ** :  -0.4516 0.1935 0.0000  plane waves:     743
 k-point ** :  -0.4194 0.1935 0.0000  plane waves:     747
[...]
 k-point ** :  -0.3548 0.4194 0.1935  plane waves:     742
 k-point ** :  -0.3226 0.4194 0.1935  plane waves:     739
 k-point ** :  -0.2903 0.4194 0.1935  plane waves:     735
 k-point ** :  -0.2581 0.4194 0.1935  plane waves:     738
 k-point ** :  -0.2258 0.4194 0.1935  plane waves:     741
 k-point ** :  -0.3548 0.4516 0.1935  plane waves:     741
 k-point ** :  -0.3226 0.4516 0.1935  plane waves:     740
 k-point ** :  -0.2903 0.4516 0.1935  plane waves:     735
 k-point ** :  -0.2581 0.4516 0.1935  plane waves:     735
 k-point ** :  -0.3226 0.4839 0.1935  plane waves:     739
 k-point ** :  -0.2903 0.4839 0.1935  plane waves:     736
 k-point ** :  -0.3226 0.4516 0.2258  plane waves:     738
 k-point ** :  -0.2903 0.4516 0.2258  plane waves:     736
 k-point ** :  -0.2903 0.4839 0.2258  plane waves:     739
 k-point ** :  -0.2581 0.4839 0.2258  plane waves:     737

 maximum number of plane-waves:       757
 maximum index in each direction:
   IXMAX=    6   IYMAX=    6   IZMAX=    6
   IXMIN=   -6   IYMIN=   -6   IZMIN=   -6

 NGX is ok and might be reduce to  26
 NGY is ok and might be reduce to  26
 NGZ is ok and might be reduce to  26

 initial charge density was supplied:
 number of electron       8.0000000 magnetization
 keeping initial charge density in first step

 Maximum index for augmentation-charges        17549 (set IRDMAX)

 First call to EWALD:  gamma=   0.515
 Maximum number of real-space cells 3x 3x 3
 Maximum number of reciprocal cells 3x 3x 3

----------------------------------------- Iteration    1(   1)  ---------------------------------------

 BZINTS: Fermi energy:  6.287353;  8.000000 electrons
         Band energy:   6.420255;  BLOECHL correction:  0.000000

 eigenvalue-minimisations  : 17472
 total energy-change (2. order) :-0.9372657E+01  (-0.2614153E+02)
 number of electron       8.0000000 magnetization
 augmentation part        8.0000000 magnetization

 Free energy of the ion-electron system (eV)
  alpha Z        PSCENC =         3.29387720
  Ewald energy   TEWEN  =      -226.96102592
  -1/2 Hartree   DENC   =       -15.18137941
  -exchange  EXHF       =         0.00000000
  -V(xc)+E(xc)   XCENC  =       -18.05649600
  PAW double counting   =        73.62591634      -38.64529723
  entropy T*S    EENTRO =         0.00000000
  eigenvalues    EBANDS =         6.42025514
  atomic energy  EATOM  =       206.13149246
  free energy    TOTEN  =        -9.37265742 eV

  energy without entropy =       -9.37265742  energy(sigma->0) =       -9.37265742

[...]

----------------------------------------- Iteration    1(   6)  ---------------------------------------

[...]

 eigenvalue-minimisations  : 17648
 total energy-change (2. order) :-0.4720562E-09  (-0.4720507E-09)
 number of electron       8.0000000 magnetization
 augmentation part        8.0000000 magnetization

 Free energy of the ion-electron system (eV)
  alpha Z        PSCENC =         3.29387720
  Ewald energy   TEWEN  =      -226.96102592
  -1/2 Hartree   DENC   =       -15.18137941
  -exchange  EXHF       =         0.00000000
  -V(xc)+E(xc)   XCENC  =       -18.05649600
  PAW double counting   =        73.62591634      -38.64529723
  entropy T*S    EENTRO =         0.00000000
  eigenvalues    EBANDS =         4.94323883
  atomic energy  EATOM  =       206.13149246
  free energy    TOTEN  =       -10.84967374 eV

  energy without entropy =      -10.84967374  energy(sigma->0) =      -10.84967374

 average (electrostatic) potential at core
  the test charge radii are     0.9892
  (the norm of the test charge is              1.0000)
       1 -83.4770       2 -83.4770

 E-fermi :   5.6873     XC(G=0):  -9.3272     alpha+bet :-11.7342

 k-point   1 :       0.0000    0.0000    0.0000
  band No.  band energies     occupation
      1      -6.1967      2.00000
      2       5.6198      2.00000
      3       5.6198      2.00000
      4       5.6198      2.00000
      5       8.1765      0.00000
      6       8.1765      0.00000
      7       8.1765      0.00000
      8       8.7561      0.00000

[...]

 k-point 816 :      -0.2581    0.4839    0.2258
  band No.  band energies     occupation
      1      -2.1143      2.00000
      2      -1.8341      2.00000
      3       1.7532      2.00000
      4       1.9810      2.00000
      5       9.6425      0.00000
      6      10.0033      0.00000
      7      10.5820      0.00000
      8      10.6810      0.00000

 soft charge-density along one line, spin component           1
         0         1         2         3         4         5         6         7         8         9
x     0.0000    0.0000    0.0000    0.0000    0.0000    0.0000    0.0000    0.0000    0.0000    0.0000
x     0.0000    0.0000    0.0000    0.0000    0.0000    0.0000    0.0000    0.0000    0.0000    0.0000
x     0.0000    0.0000    0.0000    0.0000    0.0000    0.0000    0.0000    0.0000    0.0000    0.0000
y     0.0000    0.0000    0.0000    0.0000    0.0000    0.0000    0.0000    0.0000    0.0000    0.0000
y     0.0000    0.0000    0.0000    0.0000    0.0000    0.0000    0.0000    0.0000    0.0000    0.0000
y     0.0000    0.0000    0.0000    0.0000    0.0000    0.0000    0.0000    0.0000    0.0000    0.0000
z     0.0000    0.0000    0.0000    0.0000    0.0000    0.0000    0.0000    0.0000    0.0000    0.0000
z     0.0000    0.0000    0.0000    0.0000    0.0000    0.0000    0.0000    0.0000    0.0000    0.0000
z     0.0000    0.0000    0.0000    0.0000    0.0000    0.0000    0.0000    0.0000    0.0000    0.0000
 total charge-density along one line
x     8.0000    0.0000    1.7871    0.0000    0.3549    0.0000    0.1586    0.0000    0.0233    0.0000
x    -0.0043    0.0000   -0.0007    0.0000   -0.0004    0.0000    0.0000    0.0000    0.0001    0.0000
x     0.0000    0.0000    0.0000    0.0000    0.0000    0.0000    0.0000    0.0000    0.0000    0.0000
x     0.0000    0.0000    0.0000    0.0000    0.0000    0.0000    0.0000    0.0000    0.0000    0.0000
x     0.0000    0.0000    0.0000    0.0000    0.0000    0.0000    0.0000    0.0000    0.0000    0.0000
x     0.0000    0.0000    0.0000    0.0000    0.0000    0.0000    0.0000    0.0000
y     8.0000    0.0000    1.7871    0.0000    0.3549    0.0000    0.1586    0.0000    0.0233    0.0000
y    -0.0043    0.0000   -0.0007    0.0000   -0.0004    0.0000    0.0000    0.0000    0.0001    0.0000
y     0.0000    0.0000    0.0000    0.0000    0.0000    0.0000    0.0000    0.0000    0.0000    0.0000
y     0.0000    0.0000    0.0000    0.0000    0.0000    0.0000    0.0000    0.0000    0.0000    0.0000
y     0.0000    0.0000    0.0000    0.0000    0.0000    0.0000    0.0000    0.0000    0.0000    0.0000
y     0.0000    0.0000    0.0000    0.0000    0.0000    0.0000    0.0000    0.0000
z     8.0000    0.0000    1.7871    0.0000    0.3549    0.0000    0.1586    0.0000    0.0233    0.0000
z    -0.0043    0.0000   -0.0007    0.0000   -0.0004    0.0000    0.0000    0.0000    0.0001    0.0000
z     0.0000    0.0000    0.0000    0.0000    0.0000    0.0000    0.0000    0.0000    0.0000    0.0000
z     0.0000    0.0000    0.0000    0.0000    0.0000    0.0000    0.0000    0.0000    0.0000    0.0000
z     0.0000    0.0000    0.0000    0.0000    0.0000    0.0000    0.0000    0.0000    0.0000    0.0000
z     0.0000    0.0000    0.0000    0.0000    0.0000    0.0000    0.0000    0.0000

------------------------ aborting loop because EDIFF is reached ----------------------------------------

 total charge

# of ion     s       p       d       tot
  1        0.751   0.928   0.000   1.679
  2        0.751   0.928   0.000   1.679
tot        1.502   1.856   0.000   3.358

  FORCE on cell =-STRESS in cart. coord.  units (eV):
  Direction    XX          YY          ZZ          XY          YZ          ZX
  Alpha Z     3.29388     3.29388     3.29388
  Ewald     -75.65371   -75.65371   -75.65371     0.00000     0.00000     0.00000
  Hartree     5.05490     5.05490     5.05490     0.00000     0.00000     0.00000
  E(xc)     -25.24821   -25.24821   -25.24821     0.00000     0.00000     0.00000
  Local     -29.51211   -29.51212   -29.51212     0.00001     0.00000     0.00000
  n-local    75.74913    77.11862    79.51619    -0.09896     0.40653     3.49575
  augment   -11.64973   -11.64972   -11.64972    -0.00001     0.00000     0.00000
  Kinetic    54.36301    55.98915    58.39185     2.30640     1.85612     2.37539
  Fock        0.00000     0.00000     0.00000     0.00000     0.00000     0.00000
  Total      -0.00566    -0.00566    -0.00566     0.00000     0.00000     0.00000
  in kB      -0.22196    -0.22196    -0.22196     0.00000     0.00000     0.00000

 VOLUME and BASIS-vectors are now :
  energy-cutoff  :      400.00
  volume of cell :       40.88
      direct lattice vectors                 reciprocal lattice vectors
     3.866699934  0.000000000  0.000000000     0.258618465 -0.149313440 -0.105580546
     1.933349967  3.348660372  0.000000000     0.000000000  0.298626880 -0.105580546
     1.933349967  1.116220124  3.157147276     0.000000000  0.000000000  0.316741638

  length of vectors
     3.866699934  3.866699934  3.866699934     0.316741638  0.316741638  0.316741638

 FORCES acting on ions
    electron-ion (+dipol)            ewald-force                    non-local-force                 convergence-correction
   -.120E-07 -.443E-08 -.269E-08   0.164E-14 0.839E-09 -.153E-09   -.486E-16 -.278E-16 0.486E-16   0.439E-10 0.250E-10 0.174E-10
   0.120E-07 0.443E-08 0.269E-08   -.103E-14 -.839E-09 0.153E-09   -.833E-16 0.111E-15 -.486E-16   -.439E-10 -.250E-10 -.174E-10
   -.344E-13 -.290E-13 -.156E-13   0.614E-15 0.307E-16 -.841E-16   -.132E-15 0.833E-16 0.000E+00   0.447E-16 0.118E-14 -.366E-14

 POSITION                                       TOTAL-FORCE (eV/Angst)
      0.96667      0.55811      0.39464         0.000000      0.000000      0.000000
      6.76672      3.90677      2.76250         0.000000      0.000000      0.000000
    total drift:                                0.000000      0.000000      0.000000

  FREE ENERGIE OF THE ION-ELECTRON SYSTEM (eV)
  free  energy   TOTEN  =       -10.84967374 eV

  energy  without entropy=      -10.84967374  energy(sigma->0) =      -10.84967374

 writing wavefunctions

 total charge

# of ion     s       p       d       tot
  1        0.751   0.928   0.000   1.679
  2        0.751   0.928   0.000   1.679
tot        1.502   1.856   0.000   3.358

 BZINTS: Fermi energy:  5.687257;  8.000000 electrons
         Band energy:   4.943239;  BLOECHL correction:  0.000000