 vasp.5.3.2 13Sep12 (build Nov 06 2012 17:49:15) complex

 executed on             LinuxIFC date 2014.04.10  10:48:40

 INCAR:
 POTCAR:   PAW_PBE Si 05Jan2001
 POTCAR:   PAW_PBE Si 05Jan2001
   VRHFIN =Si: s2p2

   TITEL  = PAW_PBE Si 05Jan2001
   POMASS =   28.085; ZVAL   =    4.000    mass and valenz
   ENMAX  =  245.345; ENMIN  =  184.009 eV
   QCUT   =   -4.246; QGAM   =    8.493    optimization parameters

   Description
     l     E      TYP  RCUT    TYP  RCUT
     0   .000     23  1.900
     0   .000     23  1.900
     1   .000     23  1.900
     1   .000     23  1.900
     2   .000      7  1.900

 PAW_PBE Si 05Jan2001                   :

 POSCAR: Si diamant
  positions in direct lattice
 exchange correlation table for  LEXCH =        8
   RHO(1)=    0.500       N(1)  =     2000
   RHO(2)=  100.500       N(2)  =     4000

 ion  position               nearest neighbor table
   1  0.125  0.125  0.125-   2 2.37   2 2.37   2 2.37   2 2.37
   2  0.875  0.875  0.875-   1 2.37   1 2.37   1 2.37   1 2.37

  LATTYP: Found a face centered cubic cell.
 ALAT       =     5.4683394883

  Lattice vectors:

 A1 = (   3.8666999340,   0.0000000000,   0.0000000000)
 A2 = (   1.9333499670,   3.3486603717,   0.0000000000)
 A3 = (   1.9333499670,   1.1162201239,   3.1571472756)

Analysis of symmetry for initial positions (statically):
 Subroutine PRICEL returns:
 Original cell was already a primitive cell.

 Routine SETGRP: Setting up the symmetry group for a
 face centered cubic supercell.

 Subroutine GETGRP returns: Found 48 space group operations
 (whereof 12 operations were pure point group operations)
 out of a pool of 48 trial point group operations.

The static configuration has the point symmetry D_3d.
 The point group associated with its full space group is O_h .

Analysis of symmetry for dynamics (positions and initial velocities):
 Subroutine PRICEL returns:
 Original cell was already a primitive cell.

 Routine SETGRP: Setting up the symmetry group for a
 face centered cubic supercell.

 Subroutine GETGRP returns: Found 48 space group operations
 (whereof 12 operations were pure point group operations)
 out of a pool of 48 trial point group operations.

The dynamic configuration has the point symmetry D_3d.
 The point group associated with its full space group is O_h .

 KPOINTS: kpoints for bandstructure L-G-X-U K-G
  interpolating k-points between supplied coordinates
  k-points in reciprocal lattice

 I would recommend the setting:
   dimension x,y,z NGX =    25 NGY =   25 NGZ =   25
 SYSTEM =  unknown system
 POSCAR =  Si diamant

 Startparameter for this run:
   NWRITE =      2    write-flag & timer
   PREC   = accura    normal or accurate (medium, high low for compatibility)
   ISTART =      0    job   : 0-new  1-cont  2-samecut
   ICHARG =     11    charge: 1-file 2-atom 10-const
   ISPIN  =      1    spin polarized calculation?
   LNONCOLLINEAR =      F non collinear calculations
   LSORBIT =      F    spin-orbit coupling
   INIWAV =      1    electr: 0-lowe 1-rand  2-diag
   LASPH  =      F    aspherical Exc in radial PAW
   METAGGA=      F    non-selfconsistent MetaGGA calc.

 Electronic Relaxation 1
   ENCUT  =  400.0 eV  29.40 Ry    5.42 a.u.   6.31  6.31  6.31*2*pi/ulx,y,z
   ENINI  =  400.0     initial cutoff
   ENAUG  =  322.1 eV  augmentation charge cutoff
   NELM   =     60;   NELMIN=  6; NELMDL= -5     # of ELM steps
   EDIFF  = 0.1E-05   stopping-criterion for ELM
   LREAL  =      F    real-space projection
   NLSPLINE    = F    spline interpolate recip. space projectors
   LCOMPAT=      F    compatible to vasp.4.4
   GGA_COMPAT  = T    GGA compatible to vasp.4.4-vasp.4.6
   LMAXPAW     = -100 max onsite density
   LMAXMIX     =    2 max onsite mixed and CHGCAR
   VOSKOWN=      0    Vosko Wilk Nusair interpolation
   ROPT   =    0.00000
 Ionic relaxation
   EDIFFG = 0.1E-04   stopping-criterion for IOM
   NSW    =      0    number of steps for IOM
   NBLOCK =      1;   KBLOCK =      1    inner block; outer block
   IBRION =     -1    ionic relax: 0-MD 1-quasi-New 2-CG
   NFREE  =      0    steps in history (QN), initial steepest desc. (CG)
   ISIF   =      2    stress and relaxation
   IWAVPR =     10    prediction:  0-non 1-charg 2-wave 3-comb
   ISYM   =      2    0-nonsym 1-usesym 2-fastsym
   LCORR  =      T    Harris-Foulkes like correction to forces

   POTIM  = 0.5000    time-step for ionic-motion
   TEIN   =    0.0    initial temperature
   TEBEG  =    0.0;   TEEND  =   0.0 temperature during run
   SMASS  =  -3.00    Nose mass-parameter (am)
   estimated Nose-frequenzy (Omega)   =  0.10E-29 period in steps =****** mass=  -0.342E-27a.u.
   SCALEE = 1.0000    scale energy and forces
   NPACO  =    256;   APACO  = 16.0  distance and # of slots for P.C.
   PSTRESS=    0.0 pullay stress

  Mass of Ions in am
   POMASS =  28.09
  Ionic Valenz
   ZVAL   =   4.00
  Atomic Wigner-Seitz radii
  virtual crystal weights
   VCA    =   1.00
   NELECT =       8.0000    total number of electrons
   NUPDOWN=      -1.0000    fix difference up-down

 DOS related values:
   EMIN   =  10.00;   EMAX   =-10.00  energy-range for DOS
   EFERMI =   0.00
   ISMEAR =     0;   SIGMA  =   0.05  broadening in eV -4-tet -1-fermi 0-gaus

 Electronic relaxation 2 (details)
   IALGO  =     38    algorithm
   LDIAG  =      T    sub-space diagonalisation (order eigenvalues)
   LSUBROT=      T    optimize rotation matrix (better conditioning)
   TURBO    =      0    0=normal 1=particle mesh
   IRESTART =      0    0=no restart 2=restart with 2 vectors
   NREBOOT  =      0    no. of reboots
   NMIN     =      0    reboot dimension
   EREF     =   0.00    reference energy to select bands
   IMIX   =      4    mixing-type and parameters
     AMIX     =   0.40;   BMIX     =  1.00
     AMIX_MAG =   1.60;   BMIX_MAG =  1.00
     AMIN     =   0.10
     WC   =   100.;   INIMIX=   1;  MIXPRE=   1;  MAXMIX= -45

 Intra band minimization:
   WEIMIN = 0.0000     energy-eigenvalue tresh-hold
   EBREAK =  0.31E-07  absolut break condition
   DEPER  =   0.30     relativ break condition

   TIME   =   0.40     timestep for ELM

  volume/ion in A,a.u.               =      20.44       137.93
  Fermi-wavevector in a.u.,A,eV,Ry     =   0.950465  1.796118 12.291276  0.903383
  Thomas-Fermi vector in A             =   2.078844

 Write flags
   LWAVE  =      T    write WAVECAR
   LCHARG =      T    write CHGCAR
   LVTOT  =      F    write LOCPOT, total local potential
   LVHAR  =      F    write LOCPOT, Hartree potential only
   LELF   =      F    write electronic localiz. function (ELF)
   LORBIT =     11    0 simple, 1 ext, 2 COOP (PROOUT)

 Dipole corrections
   LMONO  =      F    monopole corrections only (constant potential shift)
   LDIPOL =      F    correct potential (dipole corrections)
   IDIPOL =      0    1-x, 2-y, 3-z, 4-all directions
   EPSILON=  1.0000000 bulk dielectric constant

 Exchange correlation treatment:
   GGA     =    --    GGA type
   VOSKOWN=      0    Vosko Wilk Nusair interpolation
   LHFCALC =     F    Hartree Fock is set to
   LHFONE  =     F    Hartree Fock one center treatment
   AEXX    =    0.0000 exact exchange contribution

 Linear response parameters
   LEPSILON=     F    determine dielectric tensor
   LRPA    =     F    only Hartree local field effects (RPA)
   LNABLA  =     F    use nabla operator in PAW spheres
   LVEL    =     F    velocity operator in full k-point grid
   LINTERFAST=   F  fast interpolation
   KINTER  =     0    interpolate to denser k-point grid
   CSHIFT  =0.1000    complex shift for real part using Kramers Kronig
   OMEGAMAX=  -1.0    maximum frequency
   DEG_THRESHOLD= 0.2000000E-02 threshold for treating states as degnerate
   RTIME   =    0.100 relaxation time in fs

 Orbital magnetization related:
   ORBITALMAG=     F  switch on orbital magnetization
   LCHIMAG   =     F  perturbation theory with respect to B field
   DQ        =  0.001000  dq finite difference perturbation B field

 Static calculation
 charge density and potential remain constant during run
 non-spin polarized calculation
 Variant of blocked Davidson
 Davidson routine will perform the subspace rotation
 perform sub-space diagonalisation
    after iterative eigenvector-optimisation
 no mixing
 using additional bands            4
 reciprocal scheme for non local part
 use partial core corrections
 calculate Harris-corrections to forces
   (improved forces if not selfconsistent)
 use gradient corrections
 WARNING: stress and forces are not correct
  (second derivative of E(xc) not defined)
 use of overlap-Matrix (Vanderbilt PP)
 Gauss-broadening in eV      SIGMA  =   0.05

  energy-cutoff  :      400.00
  volume of cell :       40.88
      direct lattice vectors                 reciprocal lattice vectors
     3.866699934  0.000000000  0.000000000     0.258618465 -0.149313440 -0.105580546
     1.933349967  3.348660372  0.000000000     0.000000000  0.298626880 -0.105580546
     1.933349967  1.116220124  3.157147276     0.000000000  0.000000000  0.316741638

  length of vectors
     3.866699934  3.866699934  3.866699934     0.316741638  0.316741638  0.316741638

 k-points in units of 2pi/SCALE and weight: kpoints for bandstructure L-G-X-U K-G
   0.12930923  0.07465672  0.05279027       0.006
   0.12599361  0.07274245  0.05143668       0.006
   0.12267799  0.07082817  0.05008308       0.006
   0.11936237  0.06891390  0.04872948       0.006
   0.11604675  0.06699962  0.04737589       0.006
   0.11273113  0.06508535  0.04602229       0.006
   0.10941550  0.06317107  0.04466869       0.006
   0.10609988  0.06125680  0.04331510       0.006
   0.10278426  0.05934252  0.04196150       0.006
   0.09946864  0.05742825  0.04060790       0.006
   0.09615302  0.05551397  0.03925431       0.006
   0.09283740  0.05359970  0.03790071       0.006
   0.08952178  0.05168542  0.03654711       0.006
   0.08620615  0.04977115  0.03519352       0.006
   0.08289053  0.04785687  0.03383992       0.006
   0.07957491  0.04594260  0.03248632       0.006
   0.07625929  0.04402832  0.03113273       0.006
   0.07294367  0.04211405  0.02977913       0.006
   0.06962805  0.04019977  0.02842553       0.006
   0.06631243  0.03828550  0.02707193       0.006
   0.06299681  0.03637122  0.02571834       0.006
   0.05968118  0.03445695  0.02436474       0.006
   0.05636556  0.03254267  0.02301114       0.006
   0.05304994  0.03062840  0.02165755       0.006
   0.04973432  0.02871412  0.02030395       0.006
   0.04641870  0.02679985  0.01895035       0.006
   0.04310308  0.02488557  0.01759676       0.006
   0.03978746  0.02297130  0.01624316       0.006
   0.03647183  0.02105702  0.01488956       0.006
   0.03315621  0.01914275  0.01353597       0.006
   0.02984059  0.01722847  0.01218237       0.006
   0.02652497  0.01531420  0.01082877       0.006
   0.02320935  0.01339992  0.00947518       0.006
   0.01989373  0.01148565  0.00812158       0.006
   0.01657811  0.00957137  0.00676798       0.006
   0.01326249  0.00765710  0.00541439       0.006
   0.00994686  0.00574282  0.00406079       0.006
   0.00663124  0.00382855  0.00270719       0.006
   0.00331562  0.00191427  0.00135360       0.006
[...]
   0.00000000  0.10256410  0.10256410       0.006
   0.00000000  0.11538462  0.11538462       0.006
   0.00000000  0.12820513  0.12820513       0.006
   0.00000000  0.14102564  0.14102564       0.006
   0.00000000  0.15384615  0.15384615       0.006
   0.00000000  0.16666667  0.16666667       0.006
   0.00000000  0.17948718  0.17948718       0.006
   0.00000000  0.19230769  0.19230769       0.006
   0.00000000  0.20512821  0.20512821       0.006
   0.00000000  0.21794872  0.21794872       0.006
   0.00000000  0.23076923  0.23076923       0.006
   0.00000000  0.24358974  0.24358974       0.006
[...]
   0.13461538  0.26923077  0.13461538       0.006
   0.12500000  0.25000000  0.12500000       0.006
   0.11538462  0.23076923  0.11538462       0.006
   0.10576923  0.21153846  0.10576923       0.006
   0.09615385  0.19230769  0.09615385       0.006
   0.08653846  0.17307692  0.08653846       0.006
   0.07692308  0.15384615  0.07692308       0.006
   0.06730769  0.13461538  0.06730769       0.006
   0.05769231  0.11538462  0.05769231       0.006
   0.04807692  0.09615385  0.04807692       0.006
   0.03846154  0.07692308  0.03846154       0.006
   0.02884615  0.05769231  0.02884615       0.006
   0.01923077  0.03846154  0.01923077       0.006
   0.00961538  0.01923077  0.00961538       0.006
   0.00000000  0.00000000  0.00000000       0.006

 position of ions in fractional coordinates (direct lattice)
   0.12500000  0.12500000  0.12500000
   0.87500000  0.87500000  0.87500000

 position of ions in cartesian coordinates  (Angst):
   0.96667498  0.55811006  0.39464341
   6.76672488  3.90677043  2.76250387

 k-point  1 :   0.5000 0.5000 0.5000  plane waves:     754
 k-point  2 :   0.4872 0.4872 0.4872  plane waves:     754
 k-point  3 :   0.4744 0.4744 0.4744  plane waves:     754
 k-point  4 :   0.4615 0.4615 0.4615  plane waves:     748
 k-point  5 :   0.4487 0.4487 0.4487  plane waves:     751
 k-point  6 :   0.4359 0.4359 0.4359  plane waves:     751
 k-point  7 :   0.4231 0.4231 0.4231  plane waves:     757
 k-point  8 :   0.4103 0.4103 0.4103  plane waves:     751
 k-point  9 :   0.3974 0.3974 0.3974  plane waves:     754
 k-point 10 :   0.3846 0.3846 0.3846  plane waves:     751
 k-point 11 :   0.3718 0.3718 0.3718  plane waves:     751
 k-point 12 :   0.3590 0.3590 0.3590  plane waves:     751
 k-point 13 :   0.3462 0.3462 0.3462  plane waves:     751
 k-point 14 :   0.3333 0.3333 0.3333  plane waves:     751
 k-point 15 :   0.3205 0.3205 0.3205  plane waves:     751
 k-point 16 :   0.3077 0.3077 0.3077  plane waves:     751
 k-point 17 :   0.2949 0.2949 0.2949  plane waves:     757
 k-point 18 :   0.2821 0.2821 0.2821  plane waves:     757
 k-point 19 :   0.2692 0.2692 0.2692  plane waves:     754
 k-point 20 :   0.2564 0.2564 0.2564  plane waves:     751
 k-point 21 :   0.2436 0.2436 0.2436  plane waves:     751
 k-point 22 :   0.2308 0.2308 0.2308  plane waves:     745
 k-point 23 :   0.2179 0.2179 0.2179  plane waves:     745
 k-point 24 :   0.2051 0.2051 0.2051  plane waves:     745
 k-point 25 :   0.1923 0.1923 0.1923  plane waves:     739
 k-point 26 :   0.1795 0.1795 0.1795  plane waves:     739
 k-point 27 :   0.1667 0.1667 0.1667  plane waves:     748
 k-point 28 :   0.1538 0.1538 0.1538  plane waves:     739
 k-point 29 :   0.1410 0.1410 0.1410  plane waves:     740
 k-point 30 :   0.1282 0.1282 0.1282  plane waves:     740
 k-point 31 :   0.1154 0.1154 0.1154  plane waves:     737
 k-point 32 :   0.1026 0.1026 0.1026  plane waves:     737
 k-point 33 :   0.0897 0.0897 0.0897  plane waves:     737
 k-point 34 :   0.0769 0.0769 0.0769  plane waves:     737
 k-point 35 :   0.0641 0.0641 0.0641  plane waves:     737
 k-point 36 :   0.0513 0.0513 0.0513  plane waves:     731
 k-point 37 :   0.0385 0.0385 0.0385  plane waves:     731
 k-point 38 :   0.0256 0.0256 0.0256  plane waves:     731
 k-point 39 :   0.0128 0.0128 0.0128  plane waves:     725
 k-point 40 :   0.0000 0.0000 0.0000  plane waves:     725
 k-point 41 :   0.0000 0.0000 0.0000  plane waves:     725
 k-point 42 :   0.0000 0.0128 0.0128  plane waves:     725
 k-point 43 :   0.0000 0.0256 0.0256  plane waves:     729
 k-point 44 :   0.0000 0.0385 0.0385  plane waves:     733
 k-point 45 :   0.0000 0.0513 0.0513  plane waves:     733
 k-point 46 :   0.0000 0.0641 0.0641  plane waves:     733
 k-point 47 :   0.0000 0.0769 0.0769  plane waves:     733
 k-point 48 :   0.0000 0.0897 0.0897  plane waves:     733
 k-point 49 :   0.0000 0.1026 0.1026  plane waves:     737
 k-point 50 :   0.0000 0.1154 0.1154  plane waves:     737
 k-point 51 :   0.0000 0.1282 0.1282  plane waves:     745
 k-point 52 :   0.0000 0.1410 0.1410  plane waves:     745
 k-point 53 :   0.0000 0.1538 0.1538  plane waves:     745
 k-point 54 :   0.0000 0.1667 0.1667  plane waves:     737
 k-point 55 :   0.0000 0.1795 0.1795  plane waves:     737
 k-point 56 :   0.0000 0.1923 0.1923  plane waves:     745
 k-point 57 :   0.0000 0.2051 0.2051  plane waves:     745
 k-point 58 :   0.0000 0.2179 0.2179  plane waves:     733
 k-point 59 :   0.0000 0.2308 0.2308  plane waves:     729
 k-point 60 :   0.0000 0.2436 0.2436  plane waves:     729
[...]
 k-point 85 :   0.0256 0.5128 0.5128  plane waves:     740
 k-point 86 :   0.0321 0.5160 0.5160  plane waves:     740
 k-point 87 :   0.0385 0.5192 0.5192  plane waves:     740
 k-point 88 :   0.0449 0.5224 0.5224  plane waves:     740
 k-point 89 :   0.0513 0.5256 0.5256  plane waves:     740
 k-point 90 :   0.0577 0.5288 0.5288  plane waves:     740
 k-point 91 :   0.0641 0.5321 0.5321  plane waves:     742
 k-point 92 :   0.0705 0.5353 0.5353  plane waves:     742
 k-point 93 :   0.0769 0.5385 0.5385  plane waves:     742
 k-point 94 :   0.0833 0.5417 0.5417  plane waves:     742
 k-point 95 :   0.0897 0.5449 0.5449  plane waves:     742
 k-point 96 :   0.0962 0.5481 0.5481  plane waves:     744
 k-point 97 :   0.1026 0.5513 0.5513  plane waves:     744
 k-point 98 :   0.1090 0.5545 0.5545  plane waves:     744
 k-point 99 :   0.1154 0.5577 0.5577  plane waves:     744
 k-point ** :   0.1218 0.5609 0.5609  plane waves:     744
 k-point ** :   0.1282 0.5641 0.5641  plane waves:     738
 k-point ** :   0.1346 0.5673 0.5673  plane waves:     738
 k-point ** :   0.1410 0.5705 0.5705  plane waves:     738
 k-point ** :   0.1474 0.5737 0.5737  plane waves:     738
 k-point ** :   0.1538 0.5769 0.5769  plane waves:     738
 k-point ** :   0.1603 0.5801 0.5801  plane waves:     740
 k-point ** :   0.1667 0.5833 0.5833  plane waves:     740
 k-point ** :   0.1731 0.5865 0.5865  plane waves:     740
 k-point ** :   0.1795 0.5897 0.5897  plane waves:     740
 k-point ** :   0.1859 0.5929 0.5929  plane waves:     740
 k-point ** :   0.1923 0.5962 0.5962  plane waves:     740
 k-point ** :   0.1987 0.5994 0.5994  plane waves:     744
 k-point ** :   0.2051 0.6026 0.6026  plane waves:     740
 k-point ** :   0.2115 0.6058 0.6058  plane waves:     740
 k-point ** :   0.2179 0.6090 0.6090  plane waves:     742
 k-point ** :   0.2244 0.6122 0.6122  plane waves:     742
 k-point ** :   0.2308 0.6154 0.6154  plane waves:     740
 k-point ** :   0.2372 0.6186 0.6186  plane waves:     740
 k-point ** :   0.2436 0.6218 0.6218  plane waves:     740
 k-point ** :   0.2500 0.6250 0.6250  plane waves:     740
 k-point ** :   0.3750 0.7500 0.3750  plane waves:     740
 k-point ** :   0.3654 0.7308 0.3654  plane waves:     734
 k-point ** :   0.3558 0.7115 0.3558  plane waves:     734
 k-point ** :   0.3462 0.6923 0.3462  plane waves:     734
 k-point ** :   0.3365 0.6731 0.3365  plane waves:     730
 k-point ** :   0.3269 0.6538 0.3269  plane waves:     736
 k-point ** :   0.3173 0.6346 0.3173  plane waves:     736
 k-point ** :   0.3077 0.6154 0.3077  plane waves:     736
 k-point ** :   0.2981 0.5962 0.2981  plane waves:     732
 k-point ** :   0.2885 0.5769 0.2885  plane waves:     736
 k-point ** :   0.2788 0.5577 0.2788  plane waves:     744
 k-point ** :   0.2692 0.5385 0.2692  plane waves:     750
 k-point ** :   0.2596 0.5192 0.2596  plane waves:     750
 k-point ** :   0.2500 0.5000 0.2500  plane waves:     754
 k-point ** :   0.2404 0.4808 0.2404  plane waves:     746
 k-point ** :   0.2308 0.4615 0.2308  plane waves:     746
 k-point ** :   0.2212 0.4423 0.2212  plane waves:     742
 k-point ** :   0.2115 0.4231 0.2115  plane waves:     742
 k-point ** :   0.2019 0.4038 0.2019  plane waves:     742
 k-point ** :   0.1923 0.3846 0.1923  plane waves:     738
 k-point ** :   0.1827 0.3654 0.1827  plane waves:     738
 k-point ** :   0.1731 0.3462 0.1731  plane waves:     748
 k-point ** :   0.1635 0.3269 0.1635  plane waves:     748
 k-point ** :   0.1538 0.3077 0.1538  plane waves:     748
 k-point ** :   0.1442 0.2885 0.1442  plane waves:     749
 k-point ** :   0.1346 0.2692 0.1346  plane waves:     753
 k-point ** :   0.1250 0.2500 0.1250  plane waves:     753
 k-point ** :   0.1154 0.2308 0.1154  plane waves:     753
 k-point ** :   0.1058 0.2115 0.1058  plane waves:     747
 k-point ** :   0.0962 0.1923 0.0962  plane waves:     747
 k-point ** :   0.0865 0.1731 0.0865  plane waves:     739
 k-point ** :   0.0769 0.1538 0.0769  plane waves:     739
 k-point ** :   0.0673 0.1346 0.0673  plane waves:     737
 k-point ** :   0.0577 0.1154 0.0577  plane waves:     737
 k-point ** :   0.0481 0.0962 0.0481  plane waves:     737
 k-point ** :   0.0385 0.0769 0.0385  plane waves:     737
 k-point ** :   0.0288 0.0577 0.0288  plane waves:     731
 k-point ** :   0.0192 0.0385 0.0192  plane waves:     731
 k-point ** :   0.0096 0.0192 0.0096  plane waves:     725
 k-point ** :   0.0000 0.0000 0.0000  plane waves:     725

 maximum and minimum number of plane-waves per node :       757      725

 maximum number of plane-waves:       757
 maximum index in each direction:
   IXMAX=    6   IYMAX=    6   IZMAX=    6
   IXMIN=   -6   IYMIN=   -7   IZMIN=   -6

 NGX is ok and might be reduce to  26
 NGY is ok and might be reduce to  28
 NGZ is ok and might be reduce to  26

 serial   3D FFT for wavefunctions
 parallel 3D FFT for charge:
    minimum data exchange during FFTs selected (reduces bandwidth)

 initial charge density was supplied:
 number of electron       8.0000000 magnetization
 keeping initial charge density in first step

 Maximum index for augmentation-charges         4398 (set IRDMAX)

 First call to EWALD:  gamma=   0.515
 Maximum number of real-space cells 3x 3x 3
 Maximum number of reciprocal cells 3x 3x 3

 FEWALD executed in parallel

----------------------------------------- Iteration    1(   1)  ---------------------------------------

 eigenvalue-minimisations  :  2568
 total energy-change (2. order) : 0.6871684E+01  (-0.2718612E+03)
 number of electron       8.0000000 magnetization
 augmentation part        8.0000000 magnetization

 Free energy of the ion-electron system (eV)
  alpha Z        PSCENC =         3.29387720
  Ewald energy   TEWEN  =      -226.96102592
  -1/2 Hartree   DENC   =       -15.18137941
  -exchange  EXHF       =         0.00000000
  -V(xc)+E(xc)   XCENC  =       -18.05649600
  PAW double counting   =        73.62591634      -38.64529723
  entropy T*S    EENTRO =        -0.00107533
  eigenvalues    EBANDS =        22.66567204
  atomic energy  EATOM  =       206.13149246
  free energy    TOTEN  =         6.87168414 eV

  energy without entropy =        6.87275947  energy(sigma->0) =        6.87222181

[...]

 eigenvalue-minimisations  :  4056
 total energy-change (2. order) :-0.1369018E+02  (-0.1302308E+02)
 number of electron       8.0000000 magnetization
 augmentation part        8.0000000 magnetization

[...]

----------------------------------------- Iteration    1(   6)  ---------------------------------------

 eigenvalue-minimisations  :  4248
 total energy-change (2. order) :-0.1607330E-07  (-0.1607328E-07)
 number of electron       8.0000000 magnetization
 augmentation part        8.0000000 magnetization

 Free energy of the ion-electron system (eV)
  alpha Z        PSCENC =         3.29387720
  Ewald energy   TEWEN  =      -226.96102592
  -1/2 Hartree   DENC   =       -15.18137941
  -exchange  EXHF       =         0.00000000
  -V(xc)+E(xc)   XCENC  =       -18.05649600
  PAW double counting   =        73.62591634      -38.64529723
  entropy T*S    EENTRO =         0.00000000
  eigenvalues    EBANDS =         8.78606033
  atomic energy  EATOM  =       206.13149246
  free energy    TOTEN  =        -7.00685223 eV

  energy without entropy =       -7.00685223  energy(sigma->0) =       -7.00685223

 average (electrostatic) potential at core
  the test charge radii are     0.9892
  (the norm of the test charge is              1.0000)
       1 -83.4770       2 -83.4770

 E-fermi :   5.8847     XC(G=0):  -9.3272     alpha+bet :-11.7342

 k-point   1 :       0.5000    0.5000    0.5000
  band No.  band energies     occupation
      1      -3.9174      2.00000
      2      -1.2502      2.00000
      3       4.4410      2.00000
      4       4.4410      2.00000
      5       7.0872      0.00000
      6       8.9688      0.00000
      7       8.9688      0.00000
      8      13.3223      0.00000

[...]

 k-point 160 :       0.0000    0.0000    0.0000
  band No.  band energies     occupation
      1      -6.1967      2.00000
      2       5.6198      2.00000
      3       5.6198      2.00000
      4       5.6198      2.00000
      5       8.1765      0.00000
      6       8.1765      0.00000
      7       8.1765      0.00000
      8       8.7561      0.00000

 soft charge-density along one line, spin component           1
         0         1         2         3         4         5         6         7         8         9
 total charge-density along one line

------------------------ aborting loop because EDIFF is reached ----------------------------------------

 total charge

# of ion     s       p       d       tot
  1        0.680   1.026   0.000   1.705
  2        0.680   1.026   0.000   1.705
tot        1.359   2.052   0.000   3.411

  FORCE on cell =-STRESS in cart. coord.  units (eV):
  Direction    XX          YY          ZZ          XY          YZ          ZX
  Alpha Z     3.29388     3.29388     3.29388
  Ewald     -75.65371   -75.65371   -75.65371     0.00000     0.00000     0.00000
  Hartree     5.89761     5.89761     5.89761     0.00000     0.00000     0.00000
  E(xc)     -25.32627   -25.32627   -25.32627     0.00000     0.00000     0.00000
  Local     -31.29930   -31.29931   -31.29931     0.00001     0.00000     0.00000
  n-local    76.77650    74.74168    78.08168    -1.27274    -2.48742    -1.54794
  augment   -11.05718   -11.05717   -11.05717    -0.00001     0.00000     0.00000
  Kinetic    61.44198    60.18969    62.97097    -1.11318    -3.10221    -1.22643
  Fock        0.00000     0.00000     0.00000     0.00000     0.00000     0.00000
  Total       3.92252     3.92252     3.92252     0.00000     0.00000     0.00000
  in kB     153.73385   153.73385   153.73385     0.00000     0.00000     0.00000

 VOLUME and BASIS-vectors are now :
  energy-cutoff  :      400.00
  volume of cell :       40.88
      direct lattice vectors                 reciprocal lattice vectors
     3.866699934  0.000000000  0.000000000     0.258618465 -0.149313440 -0.105580546
     1.933349967  3.348660372  0.000000000     0.000000000  0.298626880 -0.105580546
     1.933349967  1.116220124  3.157147276     0.000000000  0.000000000  0.316741638

  length of vectors
     3.866699934  3.866699934  3.866699934     0.316741638  0.316741638  0.316741638

 FORCES acting on ions
    electron-ion (+dipol)            ewald-force                    non-local-force                 convergence-correction
   -.113E-07 -.708E-08 -.764E-08   0.164E-14 0.839E-09 -.153E-09   0.250E-15 0.382E-16 0.208E-16   -.291E-09 -.155E-09 -.122E-09
   0.113E-07 0.708E-08 0.764E-08   -.103E-14 -.839E-09 0.153E-09   -.232E-15 -.128E-15 0.416E-16   0.291E-09 0.155E-09 0.122E-09
   -.247E-12 -.302E-13 -.131E-12   0.614E-15 0.307E-16 -.841E-16   0.173E-16 -.902E-16 0.625E-16   0.148E-14 0.125E-14 -.174E-14

 POSITION                                       TOTAL-FORCE (eV/Angst)
      0.96667      0.55811      0.39464         0.000000      0.000000      0.000000
      6.76672      3.90677      2.76250         0.000000      0.000000      0.000000
    total drift:                                0.000000      0.000000      0.000000

  FREE ENERGIE OF THE ION-ELECTRON SYSTEM (eV)
  free  energy   TOTEN  =        -7.00685223 eV

  energy  without entropy=       -7.00685223  energy(sigma->0) =       -7.00685223

 writing wavefunctions

 total charge

# of ion     s       p       d       tot
  1        0.680   1.026   0.000   1.705
  2        0.680   1.026   0.000   1.705
tot        1.359   2.052   0.000   3.411